100
0 32
0 1
0 7
0 86
0 57
0 92
0 61
1 64
1 0
1 66
1 8
1 18
1 82
1 26
2 32
2 66
2 39
2 79
2 88
2 59
2 29
3 32
3 42
3 78
3 54
3 23
3 86
3 25
4 35
4 5
4 40
4 12
4 20
4 85
4 57
5 35
5 4
5 72
5 74
5 12
5 49
5 55
6 32
6 35
6 73
6 74
6 77
6 46
6 22
7 0
7 35
7 14
7 49
7 54
7 90
7 27
8 1
8 67
8 72
8 73
8 16
8 17
8 83
9 33
9 98
9 70
9 75
9 80
9 50
9 27
10 47
10 80
10 18
10 86
10 55
10 56
10 27
11 33
11 38
11 77
11 20
11 89
11 59
11 95
12 66
12 68
12 5
12 4
12 91
12 86
12 59
13 97
13 17
13 52
13 21
13 90
13 91
13 30
14 36
14 7
14 74
14 50
14 24
14 93
14 62
15 97
15 66
15 41
15 48
15 51
15 88
15 29
16 33
16 99
16 36
16 70
16 8
16 85
16 22
17 37
17 8
17 13
17 80
17 50
17 87
17 94
18 1
18 10
18 78
18 79
18 80
18 81
18 21
19 37
19 43
19 46
19 47
19 82
19 84
19 95
20 4
20 11
20 44
20 51
20 89
20 25
20 95
21 68
21 69
21 13
21 49
21 18
21 56
21 94
22 97
22 6
22 16
22 49
22 48
22 89
22 95
23 3
23 75
23 51
23 58
23 61
23 94
23 63
24 99
24 73
24 42
24 14
24 55
24 25
24 92
25 3
25 48
25 82
25 52
25 20
25 24
25 63
26 1
26 99
26 69
26 49
26 85
26 88
26 60
27 96
27 7
27 9
27 10
27 76
27 49
27 86
28 34
28 44
28 50
28 86
28 91
28 61
28 63
29 97
29 2
29 69
29 15
29 91
29 93
29 31
30 34
30 71
30 72
30 43
30 13
30 51
30 54
31 67
31 68
31 71
31 75
31 76
31 86
31 29
32 0
32 2
32 3
32 35
32 6
32 81
32 89
33 9
33 11
33 16
33 54
33 88
33 89
33 58
34 69
34 71
34 79
34 81
34 87
34 28
34 30
35 32
35 4
35 5
35 6
35 7
35 41
35 62
36 65
36 39
36 14
36 80
36 16
36 52
36 54
37 64
37 67
37 99
37 17
37 19
37 56
37 60
38 74
38 11
38 46
38 87
38 57
38 91
38 94
39 98
39 2
39 36
39 78
39 49
39 50
39 87
40 4
40 72
40 45
40 85
40 87
40 91
40 93
41 98
41 35
41 15
41 84
41 87
41 55
41 93
42 3
42 68
42 92
42 52
42 24
42 60
42 93
43 76
43 19
43 30
43 85
43 55
43 56
43 62
44 99
44 45
44 83
44 20
44 53
44 28
44 63
45 65
45 40
45 73
45 44
45 78
45 61
45 63
46 6
46 38
46 74
46 60
46 19
46 91
46 92
47 99
47 68
47 10
47 75
47 82
47 83
47 19
48 64
48 67
48 15
48 82
48 22
48 25
48 90
49 5
49 39
49 7
49 21
49 22
49 26
49 27
50 97
50 39
50 9
50 14
50 78
50 17
50 28
51 64
51 77
51 15
51 20
51 23
51 59
51 30
52 36
52 70
52 42
52 13
52 84
52 25
52 58
53 65
53 69
53 44
53 80
53 83
53 85
53 90
54 33
54 98
54 3
54 36
54 7
54 89
54 30
55 5
55 41
55 10
55 43
55 76
55 24
55 57
56 98
56 37
56 10
56 43
56 21
56 92
56 95
57 96
57 0
57 4
57 38
57 83
57 55
57 58
58 33
58 77
58 79
58 52
58 23
58 88
58 57
59 2
59 70
59 11
59 12
59 51
59 84
59 87
60 37
60 42
60 76
60 46
60 81
60 84
60 26
61 64
61 0
61 45
61 23
61 90
61 28
61 62
62 35
62 70
62 43
62 14
62 81
62 92
62 61
63 98
63 73
63 44
63 45
63 23
63 25
63 28
64 65
64 1
64 37
64 80
64 48
64 51
64 61
65 64
65 36
65 45
65 79
65 85
65 53
65 94
66 96
66 1
66 2
66 12
66 77
66 15
66 83
67 98
67 37
67 69
67 8
67 77
67 48
67 31
68 42
68 75
68 12
68 47
68 79
68 21
68 31
69 34
69 67
69 74
69 53
69 21
69 26
69 29
70 9
70 77
70 16
70 52
70 62
70 59
70 94
71 96
71 34
71 73
71 78
71 82
71 30
71 31
72 97
72 5
72 40
72 8
72 74
72 76
72 30
73 96
73 6
73 71
73 8
73 45
73 24
73 63
74 5
74 38
74 6
74 72
74 69
74 46
74 14
75 99
75 68
75 9
75 47
75 23
75 88
75 31
76 72
76 43
76 81
76 55
76 27
76 60
76 31
77 66
77 67
77 70
77 6
77 11
77 51
77 58
78 3
78 39
78 71
78 45
78 50
78 18
78 82
79 65
79 34
79 2
79 68
79 18
79 58
79 93
80 64
80 36
80 9
80 10
80 17
80 18
80 53
81 32
81 97
81 34
81 76
81 18
81 60
81 62
82 1
82 71
82 78
82 47
82 48
82 19
82 25
83 96
83 66
83 8
83 44
83 47
83 53
83 57
84 41
84 19
84 52
84 59
84 60
84 94
84 95
85 65
85 4
85 40
85 43
85 16
85 53
85 26
86 0
86 3
86 10
86 12
86 27
86 28
86 31
87 34
87 38
87 39
87 40
87 41
87 17
87 59
88 33
88 2
88 26
88 58
88 75
88 15
88 90
89 32
89 33
89 11
89 20
89 54
89 22
89 90
90 7
90 13
90 48
90 53
90 88
90 89
90 61
91 38
91 40
91 12
91 13
91 46
91 28
91 29
92 0
92 42
92 46
92 24
92 56
92 93
92 62
93 40
93 41
93 42
93 14
93 79
93 92
93 29
94 65
94 70
94 38
94 17
94 84
94 21
94 23
95 96
95 11
95 19
95 20
95 84
95 22
95 56
96 66
96 71
96 73
96 83
96 57
96 27
96 95
97 72
97 13
97 15
97 81
97 50
97 22
97 29
98 67
98 39
98 41
98 9
98 54
98 56
98 63
99 37
99 75
99 44
99 47
99 16
99 24
99 26
