16
0 5
0 3
0 2
0 10
0 1
0 12
0 13
1 7
1 15
1 3
1 12
1 5
1 14
1 0
2 6
2 1
2 11
2 13
2 15
2 8
2 10
3 7
3 6
3 14
3 8
3 1
3 13
3 12
4 10
4 7
4 3
4 11
4 15
4 5
4 0
5 2
5 13
5 6
5 8
5 4
5 14
5 11
6 15
6 10
6 4
6 1
6 8
6 3
6 12
7 11
7 14
7 13
7 0
7 9
7 4
7 2
8 3
8 12
8 6
8 15
8 5
8 0
8 7
9 1
9 7
9 14
9 11
9 10
9 4
9 2
10 13
10 9
10 12
10 1
10 6
10 3
10 0
11 14
11 2
11 5
11 9
11 4
11 13
11 6
12 7
12 8
12 10
12 15
12 0
12 1
12 2
13 0
13 4
13 9
13 3
13 7
13 11
13 10
14 8
14 2
14 9
14 6
14 5
14 10
14 1
15 6
15 11
15 12
15 9
15 7
15 8
15 4
