50
0 33
0 38
0 7
1 25
1 10
1 29
2 43
2 44
2 7
3 11
3 47
3 31
4 16
4 49
4 44
5 16
5 25
5 40
6 24
6 33
6 15
7 0
7 2
7 45
8 36
8 29
8 22
9 48
9 10
9 38
10 32
10 9
10 1
11 48
11 25
11 3
12 26
12 19
12 28
13 38
13 28
13 30
14 41
14 34
14 47
15 43
15 36
15 6
16 4
16 5
16 46
17 37
17 20
17 21
18 32
18 41
18 42
19 49
19 12
19 46
20 27
20 17
20 35
21 24
21 17
21 35
22 8
22 39
22 23
23 37
23 22
23 30
24 21
24 30
24 6
25 1
25 11
25 5
26 41
26 43
26 12
27 48
27 20
27 44
28 12
28 13
28 39
29 8
29 1
29 36
30 24
30 13
30 23
31 32
31 3
31 45
32 18
32 10
32 31
33 40
33 0
33 6
34 42
34 45
34 14
35 20
35 21
35 39
36 8
36 29
36 15
37 17
37 42
37 23
38 0
38 9
38 13
39 35
39 28
39 22
40 49
40 5
40 33
41 18
41 26
41 14
42 34
42 18
42 37
43 2
43 26
43 15
44 2
44 27
44 4
45 34
45 31
45 7
46 16
46 19
46 47
47 3
47 46
47 14
48 27
48 9
48 11
49 40
49 19
49 4
