200
0 130
0 139
0 134
1 195
1 13
1 135
2 53
2 189
2 159
3 41
3 37
3 151
4 194
4 149
4 114
5 54
5 120
5 198
6 56
6 59
6 126
7 34
7 134
7 30
8 160
8 195
8 62
9 70
9 29
9 150
10 24
10 18
10 47
11 57
11 59
11 147
12 18
12 99
12 20
13 1
13 50
13 31
14 27
14 179
14 108
15 154
15 76
15 150
16 24
16 67
16 79
17 51
17 139
17 150
18 10
18 12
18 110
19 32
19 21
19 102
20 128
20 12
20 198
21 140
21 19
21 148
22 169
22 115
22 133
23 106
23 90
23 190
24 16
24 10
24 128
25 181
25 158
25 143
26 170
26 155
26 183
27 125
27 14
27 87
28 40
28 76
28 63
29 9
29 154
29 62
30 138
30 35
30 7
31 154
31 75
31 13
32 19
32 158
32 174
33 104
33 78
33 87
34 148
34 79
34 7
35 91
35 30
35 135
36 72
36 178
36 155
37 3
37 92
37 166
38 122
38 124
38 197
39 91
39 132
39 142
40 58
40 28
40 167
41 3
41 187
41 172
42 81
42 196
42 173
43 80
43 147
43 126
44 184
44 88
44 182
45 194
45 171
45 190
46 90
46 131
46 102
47 10
47 195
47 133
48 137
48 125
48 141
49 96
49 72
49 181
50 162
50 13
50 173
51 17
51 133
51 118
52 82
52 109
52 197
53 89
53 2
53 142
54 80
54 146
54 5
55 187
55 101
55 95
56 86
56 85
56 6
57 58
57 11
57 78
58 40
58 57
58 172
59 136
59 11
59 6
60 97
60 171
60 199
61 157
61 110
61 199
62 8
62 84
62 29
63 144
63 28
63 125
64 66
64 164
64 174
65 186
65 75
65 180
66 64
66 113
66 68
67 16
67 164
67 167
68 66
68 140
68 119
69 191
69 92
69 199
70 144
70 9
70 138
71 73
71 169
71 79
72 73
72 36
72 49
73 72
73 74
73 71
74 73
74 129
74 108
75 152
75 65
75 31
76 28
76 15
76 191
77 169
77 163
77 134
78 33
78 100
78 57
79 16
79 34
79 71
80 43
80 101
80 54
81 144
81 42
81 182
82 167
82 52
82 159
83 132
83 196
83 148
84 124
84 62
84 103
85 56
85 131
85 92
86 56
86 106
86 189
87 152
87 33
87 27
88 107
88 44
88 111
89 156
89 53
89 149
90 46
90 94
90 23
91 113
91 35
91 39
92 85
92 69
92 37
93 136
93 178
93 175
94 120
94 161
94 90
95 152
95 160
95 55
96 49
96 170
96 121
97 161
97 60
97 181
98 176
98 100
98 136
99 12
99 141
99 191
100 104
100 98
100 78
101 80
101 175
101 55
102 19
102 156
102 46
103 168
103 185
103 84
104 33
104 100
104 165
105 123
105 185
105 171
106 186
106 86
106 23
107 88
107 185
107 173
108 74
108 165
108 14
109 184
109 52
109 111
110 18
110 61
110 117
111 88
111 109
111 159
112 146
112 166
112 119
113 91
113 131
113 66
114 4
114 142
114 127
115 177
115 22
115 127
116 149
116 190
116 143
117 163
117 110
117 175
118 145
118 51
118 151
119 112
119 146
119 68
120 122
120 5
120 94
121 96
121 145
121 182
122 120
122 193
122 38
123 162
123 105
123 170
124 193
124 84
124 38
125 48
125 27
125 63
126 43
126 189
126 6
127 145
127 114
127 115
128 24
128 193
128 20
129 74
129 188
129 143
130 0
130 153
130 188
131 113
131 85
131 46
132 153
132 83
132 39
133 51
133 22
133 47
134 0
134 77
134 7
135 192
135 1
135 35
136 98
136 59
136 93
137 48
137 179
137 139
138 160
138 70
138 30
139 0
139 17
139 137
140 68
140 21
140 158
141 48
141 99
141 166
142 114
142 53
142 39
143 129
143 116
143 25
144 81
144 70
144 63
145 121
145 118
145 127
146 112
146 54
146 119
147 192
147 43
147 11
148 34
148 83
148 21
149 89
149 116
149 4
150 17
150 9
150 15
151 3
151 179
151 118
152 75
152 87
152 95
153 156
153 130
153 132
154 15
154 29
154 31
155 26
155 36
155 165
156 89
156 153
156 102
157 168
157 162
157 61
158 32
158 25
158 140
159 82
159 2
159 111
160 8
160 138
160 95
161 97
161 177
161 94
162 50
162 123
162 157
163 184
163 77
163 117
164 64
164 67
164 196
165 104
165 155
165 108
166 112
166 37
166 141
167 40
167 82
167 67
168 172
168 157
168 103
169 77
169 22
169 71
170 96
170 26
170 123
171 105
171 60
171 45
172 168
172 41
172 58
173 50
173 107
173 42
174 32
174 64
174 176
175 117
175 101
175 93
176 177
176 98
176 174
177 176
177 161
177 115
178 194
178 36
178 93
179 137
179 14
179 151
180 65
180 197
180 198
181 49
181 97
181 25
182 81
182 121
182 44
183 192
183 186
183 26
184 163
184 44
184 109
185 105
185 107
185 103
186 65
186 106
186 183
187 41
187 188
187 55
188 129
188 130
188 187
189 86
189 2
189 126
190 116
190 45
190 23
191 99
191 76
191 69
192 135
192 147
192 183
193 128
193 122
193 124
194 178
194 4
194 45
195 8
195 1
195 47
196 42
196 83
196 164
197 180
197 52
197 38
198 20
198 180
198 5
199 61
199 60
199 69
