100
0 97
0 99
0 6
0 41
0 11
0 14
0 78
0 20
0 21
0 85
0 55
0 56
0 25
0 24
1 34
1 99
1 68
1 9
1 73
1 43
1 13
1 77
1 80
1 19
1 27
1 92
1 93
1 30
2 34
2 67
2 68
2 37
2 6
2 71
2 5
2 69
2 80
2 51
2 84
2 85
2 30
2 95
3 98
3 5
3 70
3 9
3 73
3 11
3 44
3 43
3 18
3 53
3 54
3 86
3 58
3 60
4 7
4 42
4 12
4 77
4 45
4 79
4 17
4 82
4 83
4 52
4 21
4 57
4 90
4 62
5 64
5 65
5 34
5 3
5 36
5 69
5 2
5 37
5 42
5 78
5 20
5 91
5 92
5 29
6 0
6 2
6 39
6 10
6 75
6 45
6 79
6 82
6 20
6 21
6 55
6 58
6 27
6 95
7 65
7 67
7 35
7 36
7 4
7 73
7 42
7 11
7 12
7 76
7 44
7 48
7 61
7 31
8 64
8 65
8 35
8 36
8 27
8 40
8 45
8 78
8 50
8 19
8 53
8 24
8 89
8 59
9 96
9 1
9 98
9 3
9 58
9 37
9 26
9 44
9 81
9 51
9 20
9 56
9 89
9 90
10 65
10 98
10 99
10 6
10 42
10 45
10 46
10 48
10 22
10 23
10 62
10 24
10 26
10 30
11 0
11 3
11 7
11 46
11 49
11 17
11 83
11 86
11 87
11 58
11 59
11 61
11 30
11 31
12 64
12 33
12 97
12 4
12 69
12 39
12 7
12 73
12 41
12 75
12 40
12 78
12 16
12 28
13 65
13 1
13 98
13 70
13 40
13 41
13 42
13 75
13 46
13 47
13 24
13 29
13 62
13 63
14 0
14 96
14 66
14 34
14 74
14 76
14 46
14 81
14 55
14 22
14 87
14 86
14 58
14 60
15 32
15 26
15 36
15 37
15 39
15 72
15 78
15 79
15 49
15 85
15 55
15 58
15 60
15 63
16 33
16 66
16 35
16 99
16 37
16 74
16 12
16 18
16 84
16 85
16 22
16 88
16 25
16 59
17 67
17 36
17 4
17 74
17 11
17 76
17 47
17 82
17 50
17 20
17 18
17 23
17 59
17 29
18 3
18 79
18 16
18 17
18 82
18 19
18 52
18 51
18 50
18 23
18 22
18 90
18 27
18 62
19 1
19 33
19 69
19 72
19 8
19 75
19 80
19 18
19 83
19 84
19 85
19 88
19 29
19 95
20 0
20 99
20 68
20 5
20 6
20 40
20 9
20 76
20 77
20 44
20 81
20 17
20 52
20 21
21 32
21 0
21 36
21 4
21 38
21 6
21 69
21 80
21 20
21 84
21 87
21 25
21 29
21 94
22 96
22 33
22 39
22 10
22 75
22 42
22 14
22 79
22 16
22 82
22 18
22 52
22 29
22 63
23 97
23 67
23 71
23 74
23 10
23 44
23 17
23 18
23 50
23 52
23 49
23 54
23 26
23 94
24 96
24 97
24 66
24 0
24 38
24 8
24 41
24 10
24 75
24 13
24 56
24 89
24 62
24 31
25 0
25 66
25 99
25 43
25 77
25 16
25 80
25 21
25 55
25 90
25 91
25 28
25 94
25 63
26 64
26 97
26 40
26 9
26 10
26 15
26 48
26 23
26 53
26 87
26 30
26 88
26 60
26 94
27 1
27 33
27 6
27 8
27 73
27 49
27 50
27 18
27 85
27 87
27 57
27 58
27 92
27 63
28 33
28 98
28 97
28 65
28 99
28 73
28 12
28 79
28 49
28 51
28 30
28 89
28 58
28 25
29 97
29 5
29 40
29 13
29 48
29 17
29 19
29 83
29 85
29 86
29 53
29 21
29 22
29 95
30 1
30 2
30 67
30 68
30 38
30 39
30 72
30 10
30 11
30 48
30 26
30 28
30 93
30 95
31 66
31 67
31 7
31 40
31 73
31 11
31 76
31 78
31 49
31 53
31 54
31 24
31 90
31 94
32 64
32 66
32 69
32 70
32 72
32 74
32 46
32 15
32 48
32 52
32 21
32 85
32 90
32 92
33 96
33 34
33 12
33 76
33 78
33 79
33 16
33 82
33 51
33 19
33 86
33 22
33 27
33 28
34 1
34 2
34 98
34 36
34 5
34 33
34 71
34 72
34 74
34 14
34 93
34 54
34 89
34 61
35 99
35 68
35 37
35 7
35 8
35 41
35 74
35 71
35 43
35 16
35 55
35 56
35 93
35 94
36 34
36 5
36 7
36 8
36 73
36 75
36 76
36 78
36 46
36 15
36 17
36 82
36 51
36 21
37 2
37 67
37 35
37 5
37 9
37 73
37 43
37 76
37 47
37 16
37 15
37 49
37 91
37 62
38 97
38 99
38 68
38 69
38 43
38 80
38 81
38 21
38 54
38 87
38 24
38 59
38 60
38 30
39 96
39 70
39 6
39 73
39 74
39 12
39 15
39 50
39 22
39 57
39 90
39 92
39 93
39 30
40 99
40 68
40 8
40 72
40 76
40 13
40 12
40 83
40 20
40 86
40 26
40 91
40 29
40 31
41 0
41 64
41 35
41 72
41 12
41 13
41 46
41 79
41 80
41 85
41 54
41 24
41 92
41 62
42 67
42 4
42 5
42 68
42 7
42 10
42 13
42 78
42 79
42 80
42 22
42 92
42 61
42 63
43 1
43 66
43 35
43 3
43 37
43 38
43 76
43 77
43 47
43 83
43 85
43 25
43 58
43 59
44 64
44 66
44 3
44 7
44 9
44 74
44 47
44 82
44 20
44 86
44 23
44 57
44 93
44 95
45 97
45 4
45 6
45 72
45 8
45 10
45 59
45 77
45 50
45 83
45 55
45 56
45 88
45 92
46 64
46 32
46 36
46 41
46 74
46 11
46 10
46 13
46 14
46 49
46 81
46 91
46 94
46 95
47 99
47 68
47 37
47 72
47 43
47 44
47 13
47 48
47 17
47 53
47 87
47 57
47 91
47 60
48 32
48 97
48 68
48 90
48 70
48 7
48 71
48 10
48 47
48 51
48 26
48 29
48 30
48 95
49 56
49 37
49 11
49 46
49 15
49 82
49 84
49 23
49 88
49 58
49 27
49 28
49 94
49 31
50 65
50 67
50 39
50 8
50 45
50 78
50 17
50 18
50 23
50 55
50 88
50 27
50 94
50 63
51 33
51 2
51 36
51 70
51 9
51 77
51 48
51 18
51 84
51 52
51 56
51 90
51 28
51 62
52 32
52 97
52 4
52 72
52 75
52 81
52 18
52 83
52 20
52 55
52 51
52 23
52 53
52 22
53 66
53 99
53 3
53 90
53 8
53 74
53 47
53 29
53 83
53 52
53 55
53 26
53 61
53 31
54 65
54 66
54 3
54 67
54 34
54 38
54 73
54 41
54 78
54 23
54 87
54 88
54 89
54 31
55 0
55 96
55 66
55 35
55 6
55 76
55 45
55 14
55 15
55 50
55 52
55 53
55 86
55 25
56 0
56 64
56 35
56 68
56 9
56 45
56 80
56 49
56 51
56 87
56 24
56 89
56 92
56 63
57 4
57 39
57 71
57 73
57 75
57 44
57 60
57 47
57 78
57 61
57 85
57 27
57 92
57 93
58 64
58 97
58 3
58 6
58 9
58 43
58 11
58 14
58 15
58 49
58 88
58 89
58 27
58 28
59 38
59 71
59 8
59 70
59 74
59 43
59 11
59 75
59 45
59 16
59 17
59 86
59 91
59 60
60 89
60 3
60 38
60 71
60 70
60 14
60 47
60 15
60 83
60 57
60 26
60 59
60 93
60 62
61 96
61 34
61 98
61 68
61 7
61 42
61 11
61 77
61 81
61 53
61 85
61 87
61 57
61 63
62 96
62 98
62 68
62 4
62 37
62 70
62 41
62 10
62 13
62 82
62 18
62 51
62 24
62 60
63 96
63 71
63 42
63 91
63 13
63 15
63 50
63 22
63 86
63 56
63 25
63 90
63 27
63 61
64 32
64 65
64 98
64 96
64 26
64 5
64 8
64 41
64 44
64 12
64 46
64 84
64 56
64 58
65 64
65 99
65 5
65 7
65 8
65 72
65 10
65 13
65 79
65 50
65 54
65 89
65 91
65 28
66 32
66 69
66 43
66 44
66 14
66 16
66 81
66 53
66 54
66 55
66 88
66 24
66 25
66 31
67 2
67 37
67 7
67 42
67 78
67 17
67 50
67 84
67 54
67 23
67 87
67 93
67 30
67 31
68 1
68 2
68 35
68 38
68 40
68 42
68 47
68 79
68 48
68 20
68 30
68 56
68 61
68 62
69 32
69 97
69 66
69 2
69 5
69 38
69 71
69 76
69 12
69 80
69 19
69 83
69 21
69 88
70 32
70 98
70 3
70 39
70 59
70 13
70 48
70 81
70 51
70 84
70 91
70 60
70 93
70 62
71 34
71 2
71 35
71 69
71 72
71 48
71 80
71 23
71 88
71 57
71 59
71 60
71 63
71 95
72 32
72 65
72 34
72 71
72 40
72 41
72 45
72 15
72 47
72 19
72 52
72 92
72 30
72 95
73 1
73 98
73 3
73 36
73 37
73 97
73 39
73 7
73 12
73 54
73 57
73 27
73 28
73 31
74 32
74 34
74 35
74 98
74 39
74 44
74 46
74 14
74 16
74 17
74 53
74 23
74 59
74 95
75 98
75 36
75 6
75 12
75 13
75 77
75 81
75 19
75 52
75 22
75 87
75 24
75 57
75 59
76 33
76 36
76 69
76 37
76 7
76 40
76 43
76 14
76 79
76 17
76 82
76 20
76 55
76 31
77 1
77 98
77 4
77 43
77 75
77 45
77 51
77 20
77 25
77 91
77 92
77 61
77 94
77 95
78 0
78 33
78 67
78 36
78 5
78 8
78 42
78 12
78 15
78 50
78 54
78 87
78 57
78 31
79 33
79 65
79 4
79 68
79 6
79 41
79 42
79 76
79 15
79 81
79 18
79 22
79 28
79 94
80 96
80 1
80 2
80 69
80 38
80 71
80 41
80 42
80 19
80 21
80 86
80 56
80 25
80 88
81 66
81 70
81 38
81 9
81 75
81 46
81 79
81 14
81 82
81 20
81 52
81 89
81 91
81 61
82 33
82 4
82 36
82 6
82 76
82 44
82 81
82 49
82 17
82 18
82 85
82 22
82 89
82 62
83 4
83 69
83 40
83 11
83 43
83 45
83 92
83 29
83 19
83 52
83 53
83 90
83 60
83 93
84 64
84 2
84 67
84 70
84 16
84 49
84 19
84 51
84 21
84 88
84 89
84 92
84 94
84 95
85 32
85 0
85 2
85 41
85 43
85 15
85 16
85 82
85 61
85 93
85 19
85 57
85 27
85 29
86 33
86 99
86 3
86 40
86 91
86 11
86 44
86 14
86 80
86 55
86 90
86 59
86 29
86 63
87 67
87 38
87 11
87 75
87 14
87 47
87 78
87 21
87 54
87 56
87 26
87 27
87 61
87 94
88 96
88 66
88 26
88 69
88 71
88 45
88 16
88 49
88 80
88 19
88 84
88 50
88 54
88 58
89 65
89 34
89 8
89 9
89 60
89 81
89 82
89 84
89 54
89 56
89 24
89 58
89 91
89 28
90 32
90 4
90 39
90 9
90 48
90 18
90 83
90 51
90 53
90 86
90 25
90 63
90 94
90 31
91 89
91 65
91 37
91 70
91 5
91 40
91 77
91 46
91 47
91 81
91 86
91 25
91 59
91 63
92 32
92 1
92 5
92 39
92 72
92 41
92 42
92 77
92 45
92 83
92 84
92 56
92 57
92 27
93 96
93 1
93 34
93 67
93 35
93 70
93 39
93 44
93 83
93 85
93 57
93 60
93 30
93 95
94 35
94 90
94 77
94 46
94 79
94 49
94 50
94 84
94 21
94 87
94 23
94 25
94 26
94 31
95 2
95 6
95 71
95 72
95 74
95 44
95 77
95 46
95 48
95 19
95 84
95 93
95 29
95 30
96 64
96 33
96 39
96 9
96 14
96 80
96 61
96 22
96 55
96 24
96 88
96 93
96 62
96 63
97 0
97 26
97 69
97 38
97 73
97 12
97 45
97 48
97 52
97 23
97 24
97 58
97 28
97 29
98 64
98 34
98 3
98 70
98 9
98 73
98 75
98 10
98 77
98 13
98 74
98 28
98 61
98 62
99 0
99 1
99 65
99 35
99 38
99 40
99 10
99 47
99 16
99 20
99 53
99 86
99 25
99 28
